plate_width = 28;
n_circuits = 22;
n_shapes = 42;
widths = [3, 3, 3, 3, 3, 3, 3, 3, 3, 3, 3, 3, 3, 4, 4, 4, 4, 4, 4, 5, 5, 5];
lengths = [3, 4, 5, 6, 7, 8, 9, 10, 11, 16, 17, 21, 23, 3, 4, 5, 8, 13, 23, 6, 9, 13];
sizes = [| 3, 3 | 3, 4 | 4, 3 | 3, 5 | 5, 3 | 3, 6 | 6, 3 | 3, 7 | 7, 3 | 3, 8 | 8, 3 | 3, 9 | 9, 3 | 3, 10 | 10, 3 | 3, 11 | 11, 3 | 3, 16 | 16, 3 | 3, 17 | 17, 3 | 3, 21 | 21, 3 | 3, 23 | 23, 3 | 4, 3 | 3, 4 | 4, 4 | 4, 5 | 5, 4 | 4, 8 | 8, 4 | 4, 13 | 13, 4 | 4, 23 | 23, 4 | 5, 6 | 6, 5 | 5, 9 | 9, 5 | 5, 13 | 13, 5 |];
offsets = [| 0, 0 | 0, 0 | 0, 0 | 0, 0 | 0, 0 | 0, 0 | 0, 0 | 0, 0 | 0, 0 | 0, 0 | 0, 0 | 0, 0 | 0, 0 | 0, 0 | 0, 0 | 0, 0 | 0, 0 | 0, 0 | 0, 0 | 0, 0 | 0, 0 | 0, 0 | 0, 0 | 0, 0 | 0, 0 | 0, 0 | 0, 0 | 0, 0 | 0, 0 | 0, 0 | 0, 0 | 0, 0 | 0, 0 | 0, 0 | 0, 0 | 0, 0 | 0, 0 | 0, 0 | 0, 0 | 0, 0 | 0, 0 | 0, 0 |];
shapes = [{1}, {2}, {3}, {4}, {5}, {6}, {7}, {8}, {9}, {10}, {11}, {12}, {13}, {14}, {15}, {16}, {17}, {18}, {19}, {20}, {21}, {22}, {23}, {24}, {25}, {26}, {27}, {28}, {29}, {30}, {31}, {32}, {33}, {34}, {35}, {36}, {37}, {38}, {39}, {40}, {41}, {42}];
valid_shapes = [{1}, {2, 3}, {4, 5}, {6, 7}, {8, 9}, {10, 11}, {12, 13}, {14, 15}, {16, 17}, {18, 19}, {20, 21}, {22, 23}, {24, 25}, {26, 27}, {28}, {29, 30}, {32, 31}, {33, 34}, {35, 36}, {37, 38}, {40, 39}, {41, 42}];